
  32    4
  10   10   10   10

   0   0   0   0   0  16 2 5 10 11 12 13 22 23 24 25 26 27 28 29 30 31 
   4  10  10  10  10   5 21 20 17 9 3 
  10  10  10  10  10   4 18 15 6 4 
   4  10  10  10  10   2 16 7 
   9  10  10  10  10   3 18 15 14 
   6  10  10  10  10   2 19 8 
   8  10  10  10  10   1 8 
   1  10  10  10  10   1 14 
   3  10  10  10  10   1 15 
   1  10  10  10  10   1 20 
   3  10  10  10  10   1 17 
   5  10  10  10  10   1 17 
   9  10  10  10  10   1 16 
   9  10  10  10  10   1 32
   1  10  10  10  10   1 32
   6  10  10  10  10   1 32
   7  10  10  10  10   1 32
   3  10  10  10  10   1 32
   1  10  10  10  10   1 32
   1  10  10  10  10   1 32
   2  10  10  10  10   1 32
   2  10  10  10  10   1 32
   3  10  10  10  10   1 32
  10  10  10  10  10   1 32
   1  10  10  10  10   1 32
   2  10  10  10  10   1 32
   3  10  10  10  10   1 32
   8  10  10  10  10   1 32
   3  10  10  10  10   1 32
  10  10  10  10  10   1 32
   4  10  10  10  10   1 32
   0   0   0   0   0   0 
